s td 78 7 84
b 1 1 2 15
b 2 13 14 28
b 3 57 71 72
b 4 70 83 84
b 5 2 3 15 16
b 6 12 13 27 28
b 7 3 4 18 33 48 63 78
b 8 4 5 18 33 48 63 78
b 9 5 18 20 33 48 63 78
b 10 5 20 33 35 48 63 78
b 11 5 20 35 48 50 63 78
b 12 5 20 35 50 63 65 78
b 13 5 20 35 50 65 78 80
b 14 5 7 20 35 50 65 80
b 15 5 6 7 20
b 16 7 20 22 35 50 65 80
b 17 7 9 22 35 50 65 80
b 18 7 8 9 22
b 19 9 22 35 37 50 65 80
b 20 9 22 24 37 50 65 80
b 21 9 11 24 37 50 65 80
b 22 9 10 11 24
b 23 11 24 37 50 52 65 80
b 24 11 24 37 52 65 67 80
b 25 11 24 37 39 52 67 80
b 26 11 24 39 52 54 67 80
b 27 11 24 26 39 54 67 80
b 28 11 26 39 41 54 67 80
b 29 11 26 41 54 56 67 80
b 30 11 26 28 41 56
b 31 11 26 27 28 41
b 32 11 12 26 27 28
b 33 28 41 42 56
b 34 41 54 56 67 69 80
b 35 41 54 55 56 69
b 36 54 56 67 69 80 82
b 37 54 67 68 69 82
b 38 67 80 81 82
b 39 56 69 82 83
b 40 26 39 40 41 54
b 41 11 24 25 26 39
b 42 39 52 53 54 67
b 43 24 37 38 39 52
b 44 52 65 66 67 80
b 45 37 50 51 52 65
b 46 9 22 23 24 37
b 47 22 35 36 37 50
b 48 7 20 21 22 35
b 49 65 78 79 80
b 50 50 63 64 65 78
b 51 35 48 49 50 63
b 52 20 33 34 35 48
b 53 5 18 19 20 33
b 54 3 18 33 48 63 76 78
b 55 3 18 33 48 61 63 76
b 56 3 18 33 48 61 74 76
b 57 3 18 33 46 48 61 74
b 58 3 18 33 46 59 61 74
b 59 3 18 31 33 46 59 74
b 60 3 18 31 44 46 59 74
b 61 3 18 29 31 44 59 74
b 62 3 16 18 29 31 44
b 63 3 15 16 29
b 64 3 16 17 18 31
b 65 16 29 30 31 44
b 66 29 44 59 72 74
b 67 29 44 58 59 72
b 68 29 43 44 58 72
b 69 59 72 73 74
b 70 31 44 45 46 59
b 71 18 31 32 33 46
b 72 46 59 60 61 74
b 73 33 46 47 48 61
b 74 61 74 75 76
b 75 48 61 62 63 76
b 76 63 76 77 78
b 77 43 57 58 72
b 78 56 69 70 83
1 5
2 6
3 77
4 78
5 63
6 32
7 8
7 54
8 9
9 10
9 53
10 11
10 52
11 12
11 51
12 13
12 50
13 14
13 49
14 15
14 16
16 17
16 48
17 18
17 19
19 20
19 47
20 21
20 46
21 22
21 23
23 24
23 45
24 25
24 44
25 26
25 43
26 27
26 42
27 28
27 41
28 29
28 40
29 30
29 34
30 31
30 33
31 32
34 35
34 36
36 37
36 38
36 39
39 78
54 55
54 76
55 56
55 75
56 57
56 74
57 58
57 73
58 59
58 72
59 60
59 71
60 61
60 70
61 62
61 66
62 63
62 64
62 65
66 67
66 69
67 68
68 77
